Gurobi Optimizer version 9.1.2 build v9.1.2rc0 (linux64)
Thread count: 36 physical cores, 72 logical processors, using up to 32 threads
Optimize a model with 12 rows, 57 columns and 590 nonzeros
Model fingerprint: 0xf32eec78
Model has 47 quadratic constraints
Coefficient statistics:
  Matrix range     [2e-05, 3e+00]
  QMatrix range    [1e+00, 1e+00]
  QLMatrix range   [1e+00, 1e+00]
  Objective range  [8e-03, 7e-01]
  Bounds range     [1e+00, 1e+00]
  RHS range        [1e+00, 1e+00]
Presolve removed 9 rows and 0 columns

Continuous model is non-convex -- solving as a MIP.

Presolve removed 9 rows and 0 columns
Presolve time: 0.00s
Presolved: 189 rows, 57 columns, 443 nonzeros
Presolved model has 47 bilinear constraint(s)
Variable types: 57 continuous, 0 integer (0 binary)

Root relaxation: objective -1.743721e+00, 44 iterations, 0.00 seconds

    Nodes    |    Current Node    |     Objective Bounds      |     Work
 Expl Unexpl |  Obj  Depth IntInf | Incumbent    BestBd   Gap | It/Node Time

     0     0   -1.74372    0   38          -   -1.74372      -     -    0s
H    0     0                       0.6147548   -1.74372   384%     -    0s
     0     0   -1.64739    0    1    0.61475   -1.64739   368%     -    0s
H    0     0                      -1.6450460   -1.64739  0.14%     -    0s
     0     0     cutoff    0        -1.64505   -1.64505  0.00%     -    0s

Cutting planes:
  RLT: 25
  BQP: 3

Explored 1 nodes (76 simplex iterations) in 0.01 seconds
Thread count was 32 (of 72 available processors)

Solution count 2: -1.64505 0.614755 
No other solutions better than -1.64505

Optimal solution found (tolerance 1.00e-04)
Best objective -1.645045978473e+00, best bound -1.645045978473e+00, gap 0.0000%

User-callback calls 78, time in user-callback 0.00 sec
Gurobi Optimizer version 9.1.2 build v9.1.2rc0 (linux64)
Thread count: 36 physical cores, 72 logical processors, using up to 32 threads
Optimize a model with 24 rows, 120 columns and 2480 nonzeros
Model fingerprint: 0xc72e2821
Model has 100 quadratic constraints
Coefficient statistics:
  Matrix range     [8e-06, 4e+00]
  QMatrix range    [1e+00, 1e+00]
  QLMatrix range   [1e+00, 1e+00]
  Objective range  [5e-03, 1e+00]
  Bounds range     [1e+00, 1e+00]
  RHS range        [1e+00, 1e+00]
Presolve removed 18 rows and 0 columns

Continuous model is non-convex -- solving as a MIP.

Presolve removed 18 rows and 0 columns
Presolve time: 0.00s
Presolved: 406 rows, 120 columns, 1113 nonzeros
Presolved model has 100 bilinear constraint(s)
Variable types: 120 continuous, 0 integer (0 binary)

Root relaxation: objective -6.580524e+00, 142 iterations, 0.00 seconds

    Nodes    |    Current Node    |     Objective Bounds      |     Work
 Expl Unexpl |  Obj  Depth IntInf | Incumbent    BestBd   Gap | It/Node Time

     0     0   -6.58052    0   92          -   -6.58052      -     -    0s
H    0     0                       1.6105866   -6.58052   509%     -    0s
     0     0   -4.71378    0   90    1.61059   -4.71378   393%     -    0s
H    0     0                       0.6252208   -4.71378   854%     -    0s
     0     0   -4.70794    0   90    0.62522   -4.70794   853%     -    0s
     0     0   -4.00091    0   90    0.62522   -4.00091   740%     -    0s
H    0     0                      -0.5422392   -4.00091   638%     -    0s
     0     0   -3.96261    0   90   -0.54224   -3.96261   631%     -    0s
     0     0   -3.82384    0   91   -0.54224   -3.82384   605%     -    0s
     0     0   -3.81029    0  100   -0.54224   -3.81029   603%     -    0s
     0     0   -3.76779    0   90   -0.54224   -3.76779   595%     -    0s
H    0     0                      -1.0248085   -3.76779   268%     -    0s
     0     0   -3.76587    0   90   -1.02481   -3.76587   267%     -    0s
     0     0   -3.75986    0   90   -1.02481   -3.75986   267%     -    0s
     0     0   -3.75849    0   90   -1.02481   -3.75849   267%     -    0s
     0     0   -3.75789    0  100   -1.02481   -3.75789   267%     -    0s
H    0     0                      -2.0685897   -3.75789  81.7%     -    0s
H    0     0                      -2.9255659   -3.75789  28.5%     -    0s
H    0     0                      -2.9765922   -3.75789  26.2%     -    0s
     0     2   -3.75789    0  100   -2.97659   -3.75789  26.2%     -    0s
*  381   155              17      -3.2309057   -3.36601  4.18%  32.3    0s
*  554    34              19      -3.2416118   -3.36601  3.84%  25.8    0s
*  566    47              19      -3.2421276   -3.36601  3.82%  25.3    0s
*  617    47              22      -3.2421630   -3.36601  3.82%  23.8    0s
*  680    80              22      -3.2421630   -3.27738  1.09%  22.9    0s
*  716    80              22      -3.2421631   -3.27738  1.09%  22.2    0s
*  790   190              20      -3.2712900   -3.27738  0.19%  20.9    0s
*  869    52              24      -3.2769365   -3.27738  0.01%  19.7    0s
*  919    52              16      -3.2770182   -3.27738  0.01%  18.9    0s
* 1053     0              18      -3.2771911   -3.27723  0.00%  16.8    0s
* 1055     0              18      -3.2772237   -3.27722  0.00%  16.8    0s

Cutting planes:
  RLT: 78
  BQP: 3
  PSD: 5

Explored 1080 nodes (18211 simplex iterations) in 0.46 seconds
Thread count was 32 (of 72 available processors)

Solution count 10: -3.27722 -3.27719 -3.27702 ... -3.24161
No other solutions better than -3.27722

Optimal solution found (tolerance 1.00e-04)
Best objective -3.277223709850e+00, best bound -3.277223709850e+00, gap 0.0000%

User-callback calls 2411, time in user-callback 0.00 sec



objective value: -3.2772237098497805
objective bound: -3.2772237098497805
x_opt: [0.0, 1.0, 1.0, 0.4512624031775146, 1.0, 0.0, 0.07440911739482672, 0.0, 0.1789385025569173, 1.0, 0.0, 0.002619817970732726, 1.0, 1.0, 1.0, 0.0, 0.0, 0.0, 0.0, 0.0]
GUROBI solution time: 0.46030402183532715




